# Objective value = 80
WA1n 0
WA1p 0
WA2n 0
WA2p 1
WB1n 0
WB1p 0
WB2n 0
WB2p 1
WC1n 0
WC1p 1
WC2n 0
WC2p 0
WD1n 0
WD1p 1
WD2n 0
WD2p 1
WE1n 0
WE1p 1
WE2n 0
WE2p 1
WF1n 4
WF1p 0
WF2n 0
WF2p 0
WG1n 0
WG1p 5
WG2n 0
WG2p 1
WH1n 0
WH1p 6
WH2n 0
WH2p 0
WI1n 0
WI1p 6
WI2n 0
WI2p 0
WJ1n 0
WJ1p 21
WJ2n 0
WJ2p 1
WT1n 0
WT1p 23
WT2n 0
WT2p 0
100 104
a 1
b 1
c 1
d 1
e 1
f 1
g 1
h 1
i 1
j 1
k 1
l 1
m 1
n 1
o 1
p 1
q 1
r 1
s 1
t 1
u 1
v 1
